!&EXT_RESTART
!  RESTART_FILE_NAME MXene-1.restart
!&END

&MOTION
   &GEO_OPT
      MAX_ITER 400
      OPTIMIZER BFGS
   &END GEO_OPT
   &PRINT
      &TRAJECTORY
         FORMAT XYZ
      &END TRAJECTORY
   &END PRINT

&END MOTION
&FORCE_EVAL
   METHOD Quickstep
   STRESS_TENSOR ANALYTICAL
   &PRINT
      &STRESS_TENSOR ON
      &END STRESS_TENSOR
   &END PRINT
   &DFT
      UKS .TRUE.
      WFN_RESTART_FILE_NAME  MXene-RESTART.kp
      BASIS_SET_FILE_NAME BASIS_MOLOPT
      POTENTIAL_FILE_NAME GTH_POTENTIALS
      &MGRID
         NGRIDS 5
         RELATIVE_CUTOFF 40
         CUTOFF 550
      &END MGRID
      &QS
         EPS_DEFAULT 1.0E-12
         METHOD GPW
         EXTRAPOLATION USE_GUESS
      &END QS
      &SCF
         EPS_SCF 1.0E-6
         SCF_GUESS RESTART
         CHOLESKY  OFF
         ADDED_MOS  200
         MAX_SCF 140
         &OUTER_SCF F
            EPS_SCF 1.0E-6
            MAX_SCF 20
         &END OUTER_SCF
         &SMEAR T
            METHOD  FERMI_DIRAC
            ELECTRONIC_TEMPERATURE     3.0000000000000000E+02
         &END SMEAR
         &MIXING T
            METHOD  BROYDEN_MIXING
            ALPHA     4.0000000000000002E-01
            BETA     1.5000000000000000E+00
            NMIXING  5
            NBUFFER  8
        &END MIXING
      &END SCF
      &XC
     &XC_FUNCTIONAL PBE                         ! PBE functional + ...
     &END
      &VDW_POTENTIAL                            ! ... dispersion interactions
         POTENTIAL_TYPE PAIR_POTENTIAL
         &PAIR_POTENTIAL
            TYPE DFTD3                          ! computed with the DFTD3 method
            REFERENCE_FUNCTIONAL PBE
            ! that requires the following parameters (in external file, specified here)
            PARAMETER_FILE_NAME ./dftd3.dat
            R_CUTOFF 15                         ! cutoff raddius for the dispersion interactions
         &END PAIR_POTENTIAL
      &END
&END XC
      &POISSON
         POISSON_SOLVER  PERIODIC
         PERIODIC  XYZ
      &END POISSON
      &KPOINTS
         SCHEME  MONKHORST-PACK  4 4 1
         FULL_GRID  .TRUE.
      &END KPOINTS
      &LS_SCF
         MAX_SCF 60
      &END LS_SCF
   &END DFT
   &SUBSYS

&TOPOLOGY
   COORD_FILE_FORMAT XYZ
   COORD_FILE_NAME input.xyz
  &END TOPOLOGY

 &CELL
         PERIODIC XYZ
     ABC  9.19500 9.19500 20
     ALPHA_BETA_GAMMA 90 90 120

&END CELL
      &KIND Ti
         BASIS_SET DZVP-MOLOPT-SR-GTH
         POTENTIAL GTH-PBE
      &END KIND
         &KIND C
         BASIS_SET DZVP-MOLOPT-SR-GTH
         POTENTIAL GTH-PBE
      &END KIND
         &KIND O
         BASIS_SET DZVP-MOLOPT-SR-GTH
         POTENTIAL GTH-PBE
       &END KIND
     &KIND Ni
         BASIS_SET DZVP-MOLOPT-SR-GTH
         POTENTIAL GTH-PBE
      &END KIND
      &KIND H
         BASIS_SET DZVP-MOLOPT-SR-GTH
         POTENTIAL GTH-PBE
      &END KIND

&END SUBSYS
&END FORCE_EVAL
&GLOBAL
   RUN_TYPE GEO_OPT
   EXTENDED_FFT_LENGTHS .TRUE.
   FFTW_PLAN_TYPE ESTIMATE
   PREFERRED_FFT_LIBRARY FFTW3
   PROJECT MXene
   PRINT_LEVEL LOW

&END GLOBAL
